p cnf 1529
-19 -481
-20 -484
-21 -487
-22 -490
-23 -493
-24 -496
-25 -499
-26 -502
-27 -505
-28 -508
-29 -511
-30 -514
-31 -517
-32 -520
-33 -523
-34 -526
-35 -529
-36 -532
-37 533
-38 534
-39 535
-40 536
-41 537
-42 538
-43 539
-44 540
-45 541
-46 542
-47 543
-48 544
-49 545
-50 546
-51 547
-52 548
-53 -20
-53 -21
20 21 53
-54 -22
-54 -23
22 23 54
-55 -24
-55 -25
24 25 55
-56 -26
-56 -27
26 27 56
-57 -28
-57 -29
28 29 57
-58 -30
-58 -31
30 31 58
-59 -32
-59 -33
32 33 59
-60 -34
-60 -35
34 35 60
-61 -36
-61 -37
36 37 61
-62 -38
-62 -39
38 39 62
-63 -40
-63 -41
40 41 63
-64 -42
-64 -43
42 43 64
-65 -44
-65 -45
44 45 65
-66 -46
-66 -47
46 47 66
-67 -48
-67 -49
48 49 67
-68 -50
-68 -51
50 51 68
-69 53
-69 54
-53 -54 69
-70 55
-70 56
-55 -56 70
-71 57
-71 58
-57 -58 71
-72 59
-72 60
-59 -60 72
-73 61
-73 62
-61 -62 73
-74 63
-74 64
-63 -64 74
-75 65
-75 66
-65 -66 75
-76 67
-76 68
-67 -68 76
-77 69
-77 70
-69 -70 77
-78 71
-78 72
-71 -72 78
-79 73
-79 74
-73 -74 79
-80 75
-80 76
-75 -76 80
-81 77
-81 78
-77 -78 81
-82 79
-82 80
-79 -80 82
-83 81
-83 82
-81 -82 83
-84 -52
-84 83
52 -83 84
-85 -19
-85 20
19 -20 85
-86 19
-86 -20
-19 20 86
-87 -85
-87 -86
85 86 87
-88 19
-88 20
-19 -20 88
-89 -19
-89 -87
19 87 89
-90 19
-90 87
-19 -87 90
-91 -89
-91 -90
89 90 91
-92 19
-92 -87
-19 87 92
-93 -88
-93 -92
88 92 93
-94 -20
-94 21
20 -21 94
-95 20
-95 -21
-20 21 95
-96 -94
-96 -95
94 95 96
-97 20
-97 21
-20 -21 97
-98 93
-98 -96
-93 96 98
-99 -93
-99 96
93 -96 99
-100 -98
-100 -99
98 99 100
-101 -93
-101 -96
93 96 101
-102 -97
-102 -101
97 101 102
-103 -21
-103 22
21 -22 103
-104 21
-104 -22
-21 22 104
-105 -103
-105 -104
103 104 105
-106 21
-106 22
-21 -22 106
-107 102
-107 -105
-102 105 107
-108 -102
-108 105
102 -105 108
-109 -107
-109 -108
107 108 109
-110 -102
-110 -105
102 105 110
-111 -106
-111 -110
106 110 111
-112 -22
-112 23
22 -23 112
-113 22
-113 -23
-22 23 113
-114 -112
-114 -113
112 113 114
-115 22
-115 23
-22 -23 115
-116 111
-116 -114
-111 114 116
-117 -111
-117 114
111 -114 117
-118 -116
-118 -117
116 117 118
-119 -111
-119 -114
111 114 119
-120 -115
-120 -119
115 119 120
-121 -23
-121 24
23 -24 121
-122 23
-122 -24
-23 24 122
-123 -121
-123 -122
121 122 123
-124 23
-124 24
-23 -24 124
-125 120
-125 -123
-120 123 125
-126 -120
-126 123
120 -123 126
-127 -125
-127 -126
125 126 127
-128 -120
-128 -123
120 123 128
-129 -124
-129 -128
124 128 129
-130 -24
-130 25
24 -25 130
-131 24
-131 -25
-24 25 131
-132 -130
-132 -131
130 131 132
-133 24
-133 25
-24 -25 133
-134 129
-134 -132
-129 132 134
-135 -129
-135 132
129 -132 135
-136 -134
-136 -135
134 135 136
-137 -129
-137 -132
129 132 137
-138 -133
-138 -137
133 137 138
-139 -25
-139 26
25 -26 139
-140 25
-140 -26
-25 26 140
-141 -139
-141 -140
139 140 141
-142 25
-142 26
-25 -26 142
-143 138
-143 -141
-138 141 143
-144 -138
-144 141
138 -141 144
-145 -143
-145 -144
143 144 145
-146 -138
-146 -141
138 141 146
-147 -142
-147 -146
142 146 147
-148 -26
-148 27
26 -27 148
-149 26
-149 -27
-26 27 149
-150 -148
-150 -149
148 149 150
-151 26
-151 27
-26 -27 151
-152 147
-152 -150
-147 150 152
-153 -147
-153 150
147 -150 153
-154 -152
-154 -153
152 153 154
-155 -147
-155 -150
147 150 155
-156 -151
-156 -155
151 155 156
-157 -27
-157 28
27 -28 157
-158 27
-158 -28
-27 28 158
-159 -157
-159 -158
157 158 159
-160 27
-160 28
-27 -28 160
-161 156
-161 -159
-156 159 161
-162 -156
-162 159
156 -159 162
-163 -161
-163 -162
161 162 163
-164 -156
-164 -159
156 159 164
-165 -160
-165 -164
160 164 165
-166 -28
-166 29
28 -29 166
-167 28
-167 -29
-28 29 167
-168 -166
-168 -167
166 167 168
-169 28
-169 29
-28 -29 169
-170 165
-170 -168
-165 168 170
-171 -165
-171 168
165 -168 171
-172 -170
-172 -171
170 171 172
-173 -165
-173 -168
165 168 173
-174 -169
-174 -173
169 173 174
-175 -29
-175 30
29 -30 175
-176 29
-176 -30
-29 30 176
-177 -175
-177 -176
175 176 177
-178 29
-178 30
-29 -30 178
-179 174
-179 -177
-174 177 179
-180 -174
-180 177
174 -177 180
-181 -179
-181 -180
179 180 181
-182 -174
-182 -177
174 177 182
-183 -178
-183 -182
178 182 183
-184 -30
-184 31
30 -31 184
-185 30
-185 -31
-30 31 185
-186 -184
-186 -185
184 185 186
-187 30
-187 31
-30 -31 187
-188 183
-188 -186
-183 186 188
-189 -183
-189 186
183 -186 189
-190 -188
-190 -189
188 189 190
-191 -183
-191 -186
183 186 191
-192 -187
-192 -191
187 191 192
-193 -31
-193 32
31 -32 193
-194 31
-194 -32
-31 32 194
-195 -193
-195 -194
193 194 195
-196 31
-196 32
-31 -32 196
-197 192
-197 -195
-192 195 197
-198 -192
-198 195
192 -195 198
-199 -197
-199 -198
197 198 199
-200 -192
-200 -195
192 195 200
-201 -196
-201 -200
196 200 201
-202 -32
-202 33
32 -33 202
-203 32
-203 -33
-32 33 203
-204 -202
-204 -203
202 203 204
-205 32
-205 33
-32 -33 205
-206 201
-206 -204
-201 204 206
-207 -201
-207 204
201 -204 207
-208 -206
-208 -207
206 207 208
-209 -201
-209 -204
201 204 209
-210 -205
-210 -209
205 209 210
-211 -33
-211 34
33 -34 211
-212 33
-212 -34
-33 34 212
-213 -211
-213 -212
211 212 213
-214 33
-214 34
-33 -34 214
-215 210
-215 -213
-210 213 215
-216 -210
-216 213
210 -213 216
-217 -215
-217 -216
215 216 217
-218 -210
-218 -213
210 213 218
-219 -214
-219 -218
214 218 219
-220 -34
-220 35
34 -35 220
-221 34
-221 -35
-34 35 221
-222 -220
-222 -221
220 221 222
-223 34
-223 35
-34 -35 223
-224 219
-224 -222
-219 222 224
-225 -219
-225 222
219 -222 225
-226 -224
-226 -225
224 225 226
-227 -219
-227 -222
219 222 227
-228 -223
-228 -227
223 227 228
-229 -35
-229 36
35 -36 229
-230 35
-230 -36
-35 36 230
-231 -229
-231 -230
229 230 231
-232 35
-232 36
-35 -36 232
-233 228
-233 -231
-228 231 233
-234 -228
-234 231
228 -231 234
-235 -233
-235 -234
233 234 235
-236 -228
-236 -231
228 231 236
-237 -232
-237 -236
232 236 237
-238 -36
-238 37
36 -37 238
-239 36
-239 -37
-36 37 239
-240 -238
-240 -239
238 239 240
-241 36
-241 37
-36 -37 241
-242 237
-242 -240
-237 240 242
-243 -237
-243 240
237 -240 243
-244 -242
-244 -243
242 243 244
-245 -237
-245 -240
237 240 245
-246 -241
-246 -245
241 245 246
-247 -37
-247 38
37 -38 247
-248 37
-248 -38
-37 38 248
-249 -247
-249 -248
247 248 249
-250 37
-250 38
-37 -38 250
-251 246
-251 -249
-246 249 251
-252 -246
-252 249
246 -249 252
-253 -251
-253 -252
251 252 253
-254 -246
-254 -249
246 249 254
-255 -250
-255 -254
250 254 255
-256 -38
-256 39
38 -39 256
-257 38
-257 -39
-38 39 257
-258 -256
-258 -257
256 257 258
-259 38
-259 39
-38 -39 259
-260 255
-260 -258
-255 258 260
-261 -255
-261 258
255 -258 261
-262 -260
-262 -261
260 261 262
-263 -255
-263 -258
255 258 263
-264 -259
-264 -263
259 263 264
-265 -39
-265 40
39 -40 265
-266 39
-266 -40
-39 40 266
-267 -265
-267 -266
265 266 267
-268 39
-268 40
-39 -40 268
-269 264
-269 -267
-264 267 269
-270 -264
-270 267
264 -267 270
-271 -269
-271 -270
269 270 271
-272 -264
-272 -267
264 267 272
-273 -268
-273 -272
268 272 273
-274 -40
-274 41
40 -41 274
-275 40
-275 -41
-40 41 275
-276 -274
-276 -275
274 275 276
-277 40
-277 41
-40 -41 277
-278 273
-278 -276
-273 276 278
-279 -273
-279 276
273 -276 279
-280 -278
-280 -279
278 279 280
-281 -273
-281 -276
273 276 281
-282 -277
-282 -281
277 281 282
-283 -41
-283 42
41 -42 283
-284 41
-284 -42
-41 42 284
-285 -283
-285 -284
283 284 285
-286 41
-286 42
-41 -42 286
-287 282
-287 -285
-282 285 287
-288 -282
-288 285
282 -285 288
-289 -287
-289 -288
287 288 289
-290 -282
-290 -285
282 285 290
-291 -286
-291 -290
286 290 291
-292 -42
-292 43
42 -43 292
-293 42
-293 -43
-42 43 293
-294 -292
-294 -293
292 293 294
-295 42
-295 43
-42 -43 295
-296 291
-296 -294
-291 294 296
-297 -291
-297 294
291 -294 297
-298 -296
-298 -297
296 297 298
-299 -291
-299 -294
291 294 299
-300 -295
-300 -299
295 299 300
-301 -43
-301 44
43 -44 301
-302 43
-302 -44
-43 44 302
-303 -301
-303 -302
301 302 303
-304 43
-304 44
-43 -44 304
-305 300
-305 -303
-300 303 305
-306 -300
-306 303
300 -303 306
-307 -305
-307 -306
305 306 307
-308 -300
-308 -303
300 303 308
-309 -304
-309 -308
304 308 309
-310 -44
-310 45
44 -45 310
-311 44
-311 -45
-44 45 311
-312 -310
-312 -311
310 311 312
-313 44
-313 45
-44 -45 313
-314 309
-314 -312
-309 312 314
-315 -309
-315 312
309 -312 315
-316 -314
-316 -315
314 315 316
-317 -309
-317 -312
309 312 317
-318 -313
-318 -317
313 317 318
-319 -45
-319 46
45 -46 319
-320 45
-320 -46
-45 46 320
-321 -319
-321 -320
319 320 321
-322 45
-322 46
-45 -46 322
-323 318
-323 -321
-318 321 323
-324 -318
-324 321
318 -321 324
-325 -323
-325 -324
323 324 325
-326 -318
-326 -321
318 321 326
-327 -322
-327 -326
322 326 327
-328 -46
-328 47
46 -47 328
-329 46
-329 -47
-46 47 329
-330 -328
-330 -329
328 329 330
-331 46
-331 47
-46 -47 331
-332 327
-332 -330
-327 330 332
-333 -327
-333 330
327 -330 333
-334 -332
-334 -333
332 333 334
-335 -327
-335 -330
327 330 335
-336 -331
-336 -335
331 335 336
-337 -47
-337 48
47 -48 337
-338 47
-338 -48
-47 48 338
-339 -337
-339 -338
337 338 339
-340 47
-340 48
-47 -48 340
-341 336
-341 -339
-336 339 341
-342 -336
-342 339
336 -339 342
-343 -341
-343 -342
341 342 343
-344 -336
-344 -339
336 339 344
-345 -340
-345 -344
340 344 345
-346 -48
-346 49
48 -49 346
-347 48
-347 -49
-48 49 347
-348 -346
-348 -347
346 347 348
-349 48
-349 49
-48 -49 349
-350 345
-350 -348
-345 348 350
-351 -345
-351 348
345 -348 351
-352 -350
-352 -351
350 351 352
-353 -345
-353 -348
345 348 353
-354 -349
-354 -353
349 353 354
-355 -49
-355 50
49 -50 355
-356 49
-356 -50
-49 50 356
-357 -355
-357 -356
355 356 357
-358 49
-358 50
-49 -50 358
-359 354
-359 -357
-354 357 359
-360 -354
-360 357
354 -357 360
-361 -359
-361 -360
359 360 361
-362 -354
-362 -357
354 357 362
-363 -358
-363 -362
358 362 363
-364 -50
-364 51
50 -51 364
-365 50
-365 -51
-50 51 365
-366 -364
-366 -365
364 365 366
-367 50
-367 51
-50 -51 367
-368 363
-368 -366
-363 366 368
-369 -363
-369 366
363 -366 369
-370 -368
-370 -369
368 369 370
-371 -363
-371 -366
363 366 371
-372 -367
-372 -371
367 371 372
-373 -51
-373 52
51 -52 373
-374 51
-374 -52
-51 52 374
-375 -373
-375 -374
373 374 375
-376 51
-376 52
-51 -52 376
-377 372
-377 -375
-372 375 377
-378 -372
-378 375
372 -375 378
-379 -377
-379 -378
377 378 379
-380 -372
-380 -375
372 375 380
-381 -376
-381 -380
376 380 381
-382 19
-382 -91
-19 91 382
-383 -19
-383 21
19 -21 383
-384 -382
-384 -383
382 383 384
-385 19
-385 -100
-19 100 385
-386 -19
-386 22
19 -22 386
-387 -385
-387 -386
385 386 387
-388 19
-388 -109
-19 109 388
-389 -19
-389 23
19 -23 389
-390 -388
-390 -389
388 389 390
-391 19
-391 -118
-19 118 391
-392 -19
-392 24
19 -24 392
-393 -391
-393 -392
391 392 393
-394 19
-394 -127
-19 127 394
-395 -19
-395 25
19 -25 395
-396 -394
-396 -395
394 395 396
-397 19
-397 -136
-19 136 397
-398 -19
-398 26
19 -26 398
-399 -397
-399 -398
397 398 399
-400 19
-400 -145
-19 145 400
-401 -19
-401 27
19 -27 401
-402 -400
-402 -401
400 401 402
-403 19
-403 -154
-19 154 403
-404 -19
-404 28
19 -28 404
-405 -403
-405 -404
403 404 405
-406 19
-406 -163
-19 163 406
-407 -19
-407 29
19 -29 407
-408 -406
-408 -407
406 407 408
-409 19
-409 -172
-19 172 409
-410 -19
-410 30
19 -30 410
-411 -409
-411 -410
409 410 411
-412 19
-412 -181
-19 181 412
-413 -19
-413 31
19 -31 413
-414 -412
-414 -413
412 413 414
-415 19
-415 -190
-19 190 415
-416 -19
-416 32
19 -32 416
-417 -415
-417 -416
415 416 417
-418 19
-418 -199
-19 199 418
-419 -19
-419 33
19 -33 419
-420 -418
-420 -419
418 419 420
-421 19
-421 -208
-19 208 421
-422 -19
-422 34
19 -34 422
-423 -421
-423 -422
421 422 423
-424 19
-424 -217
-19 217 424
-425 -19
-425 35
19 -35 425
-426 -424
-426 -425
424 425 426
-427 19
-427 -226
-19 226 427
-428 -19
-428 36
19 -36 428
-429 -427
-429 -428
427 428 429
-430 19
-430 -235
-19 235 430
-431 -19
-431 37
19 -37 431
-432 -430
-432 -431
430 431 432
-433 19
-433 -244
-19 244 433
-434 -19
-434 38
19 -38 434
-435 -433
-435 -434
433 434 435
-436 19
-436 -253
-19 253 436
-437 -19
-437 39
19 -39 437
-438 -436
-438 -437
436 437 438
-439 19
-439 -262
-19 262 439
-440 -19
-440 40
19 -40 440
-441 -439
-441 -440
439 440 441
-442 19
-442 -271
-19 271 442
-443 -19
-443 41
19 -41 443
-444 -442
-444 -443
442 443 444
-445 19
-445 -280
-19 280 445
-446 -19
-446 42
19 -42 446
-447 -445
-447 -446
445 446 447
-448 19
-448 -289
-19 289 448
-449 -19
-449 43
19 -43 449
-450 -448
-450 -449
448 449 450
-451 19
-451 -298
-19 298 451
-452 -19
-452 44
19 -44 452
-453 -451
-453 -452
451 452 453
-454 19
-454 -307
-19 307 454
-455 -19
-455 45
19 -45 455
-456 -454
-456 -455
454 455 456
-457 19
-457 -316
-19 316 457
-458 -19
-458 46
19 -46 458
-459 -457
-459 -458
457 458 459
-460 19
-460 -325
-19 325 460
-461 -19
-461 47
19 -47 461
-462 -460
-462 -461
460 461 462
-463 19
-463 -334
-19 334 463
-464 -19
-464 48
19 -48 464
-465 -463
-465 -464
463 464 465
-466 19
-466 -343
-19 343 466
-467 -19
-467 49
19 -49 467
-468 -466
-468 -467
466 467 468
-469 19
-469 -352
-19 352 469
-470 -19
-470 50
19 -50 470
-471 -469
-471 -470
469 470 471
-472 19
-472 -361
-19 361 472
-473 -19
-473 51
19 -51 473
-474 -472
-474 -473
472 473 474
-475 19
-475 -370
-19 370 475
-476 -19
-476 52
19 -52 476
-477 -475
-477 -476
475 476 477
-478 19
-478 -379
-19 379 478
-479 1
-479 84
-1 -84 479
-480 -84
-480 85
84 -85 480
-481 -479
-481 -480
479 480 481
-482 2
-482 84
-2 -84 482
-483 -84
-483 -384
84 384 483
-484 -482
-484 -483
482 483 484
-485 3
-485 84
-3 -84 485
-486 -84
-486 -387
84 387 486
-487 -485
-487 -486
485 486 487
-488 4
-488 84
-4 -84 488
-489 -84
-489 -390
84 390 489
-490 -488
-490 -489
488 489 490
-491 5
-491 84
-5 -84 491
-492 -84
-492 -393
84 393 492
-493 -491
-493 -492
491 492 493
-494 6
-494 84
-6 -84 494
-495 -84
-495 -396
84 396 495
-496 -494
-496 -495
494 495 496
-497 7
-497 84
-7 -84 497
-498 -84
-498 -399
84 399 498
-499 -497
-499 -498
497 498 499
-500 8
-500 84
-8 -84 500
-501 -84
-501 -402
84 402 501
-502 -500
-502 -501
500 501 502
-503 9
-503 84
-9 -84 503
-504 -84
-504 -405
84 405 504
-505 -503
-505 -504
503 504 505
-506 10
-506 84
-10 -84 506
-507 -84
-507 -408
84 408 507
-508 -506
-508 -507
506 507 508
-509 11
-509 84
-11 -84 509
-510 -84
-510 -411
84 411 510
-511 -509
-511 -510
509 510 511
-512 12
-512 84
-12 -84 512
-513 -84
-513 -414
84 414 513
-514 -512
-514 -513
512 513 514
-515 13
-515 84
-13 -84 515
-516 -84
-516 -417
84 417 516
-517 -515
-517 -516
515 516 517
-518 14
-518 84
-14 -84 518
-519 -84
-519 -420
84 420 519
-520 -518
-520 -519
518 519 520
-521 15
-521 84
-15 -84 521
-522 -84
-522 -423
84 423 522
-523 -521
-523 -522
521 522 523
-524 16
-524 84
-16 -84 524
-525 -84
-525 -426
84 426 525
-526 -524
-526 -525
524 525 526
-527 17
-527 84
-17 -84 527
-528 -84
-528 -429
84 429 528
-529 -527
-529 -528
527 528 529
-530 18
-530 84
-18 -84 530
-531 -84
-531 -432
84 432 531
-532 -530
-532 -531
530 531 532
-533 -84
-533 -435
84 435 533
-534 -84
-534 -438
84 438 534
-535 -84
-535 -441
84 441 535
-536 -84
-536 -444
84 444 536
-537 -84
-537 -447
84 447 537
-538 -84
-538 -450
84 450 538
-539 -84
-539 -453
84 453 539
-540 -84
-540 -456
84 456 540
-541 -84
-541 -459
84 459 541
-542 -84
-542 -462
84 462 542
-543 -84
-543 -465
84 465 543
-544 -84
-544 -468
84 468 544
-545 -84
-545 -471
84 471 545
-546 -84
-546 -474
84 474 546
-547 -84
-547 -477
84 477 547
-548 -84
-548 478
84 -478 548
-549 -52
-549 381
52 -381 549
-550 19
-550 -549
-19 549 550
550
